Solving original (integer) problem with strategy gdp.hull_exact...
--- Job model.gms Start 02/15/26 23:20:33 52.2.0 d8e408be LEX-LEG x86 64bit/Linux
--- Applying:
    /package/gams/52.2/gmsprmun.txt
--- GAMS Parameters defined
    Input /local/scratch/a/sgusev/repos/k_means/data/gams_scip_gdp.hull_exact/no_mode/2026-02-15_23-20-33/original/model.gms
    Output /local/scratch/a/sgusev/repos/k_means/data/gams_scip_gdp.hull_exact/no_mode/2026-02-15_23-20-33/original/output.lst
    ScrDir /local/scratch/a/sgusev/repos/k_means/data/gams_scip_gdp.hull_exact/no_mode/2026-02-15_23-20-33/original/225a/
    SysDir /package/gams/52.2/
    CurDir /local/scratch/a/sgusev/repos/k_means/data/gams_scip_gdp.hull_exact/no_mode/2026-02-15_23-20-33/original/
    LogOption 3
    AppendLog 1
Licensee: David Bernal / SECQUOIA Research Group         G251008+0003Ac-GEN
          Purdue University, Davidson School of Chemical EngineeringDCE4838
          225a/gamslice.dat
          5a82958a-fbca-4a23
          node:66820903 mem:995 cores:48 ipport:33515 v:2                  
          Evaluation license: Not for commercial or production use
          The time-limited license stops working on : Jun 30, 2027
System information: 48 physical cores and 995 Gb physical memory detected
GAMS 52.2.0   Copyright (C) 1987-2025 GAMS Development. All rights reserved
--- Starting compilation
--- model.gms(1775) 2 Mb
--- $echo File /local/scratch/a/sgusev/repos/k_means/data/gams_scip_gdp.hull_exact/no_mode/2026-02-15_23-20-33/original/scip.opt
--- model.gms(2650) 2 Mb
--- Starting execution: elapsed 0:00:00.012
--- model.gms(1785) 3 Mb
--- Generating MINLP model GAMS_MODEL
--- model.gms(1789) 5 Mb
---   535 rows  273 columns  1,293 non-zeroes
---   882 nl-code  168 nl-non-zeroes
---   42 discrete-columns
--- Range statistics (absolute non-zero finite values)
--- RHS       [min, max] : [ 1.000E+00, 1.000E+00] - Zero values observed as well
--- Bound     [min, max] : [ 1.000E+00, 5.600E+01] - Zero values observed as well
--- Matrix    [min, max] : [ 1.000E+00, 5.600E+01] - Zero values observed as well
--- model.gms(1789) 3 Mb
--- Executing SCIP (Solvelink=5): elapsed 0:00:00.016

SCIP             52.2.0 d8e408be Dec 8, 2025           LEG x86 64bit/Linux    
SCIP version 9.2.4 (a94f778ac8)
Copyright (c) 2002-2025 Zuse Institute Berlin (ZIB)

External libraries: 
  CPLEX 22.1.2.0       Linear Programming Solver developed by IBM (www.cplex.com)
  CppAD 20180000.0     Algorithmic Differentiation of C++ algorithms developed by B. Bell (github.com/coin-or/CppAD)
  PaPILO 2.4.4         parallel presolve for integer and linear optimization (github.com/scipopt/papilo) (built with TBB) [GitHash: 7c826d50]
  Nauty 2.8.9          Computing Graph Automorphism Groups by Brendan D. McKay (users.cecs.anu.edu.au/~bdm/nauty)
  sassy 1.1            Symmetry preprocessor by Markus Anders (github.com/markusa4/sassy)
  Ipopt 3.14.19        Interior Point Optimizer developed by A. Waechter et.al. (github.com/coin-or/Ipopt)

reading option file /local/scratch/a/sgusev/repos/k_means/data/gams_scip_gdp.hull_exact/no_mode/2026-02-15_23-20-33/original/scip.opt
non-default parameter settings:
limits/time = 300
limits/gap = 1e-06
limits/absgap = 1e-10
lp/threads = 1
misc/printreason = FALSE
numerics/dualfeastol = 1e-06
parallel/maxnthreads = 1
nlpi/ipopt/linear_solver = "ma27"
nlpi/ipopt/linear_system_scaling = "mc19"

original problem has 272 variables (42 bin, 0 int, 230 cont) and 534 constraints

all 1 solutions given by solution candidate storage are infeasible

presolving:
(round 1, fast)       14 del vars, 0 del conss, 0 add conss, 0 chg bounds, 0 chg sides, 0 chg coeffs, 0 upgd conss, 0 impls, 14 clqs
(round 2, fast)       14 del vars, 0 del conss, 0 add conss, 0 chg bounds, 14 chg sides, 0 chg coeffs, 0 upgd conss, 0 impls, 14 clqs
(round 3, exhaustive) 14 del vars, 0 del conss, 0 add conss, 0 chg bounds, 14 chg sides, 0 chg coeffs, 392 upgd conss, 0 impls, 14 clqs
   (0.0s) probing cycle finished: starting next cycle
   (0.0s) symmetry computation started: requiring (bin +, int +, cont +), (fixed: bin -, int -, cont -)
   (0.0s) no symmetry present (symcode time: 0.00)
presolving (4 rounds: 4 fast, 2 medium, 2 exhaustive):
 14 deleted vars, 0 deleted constraints, 0 added constraints, 0 tightened bounds, 0 added holes, 14 changed sides, 0 changed coefficients
 798 implications, 14 cliques
presolved problem has 258 variables (42 bin, 0 int, 0 impl, 216 cont) and 534 constraints
    378 constraints of type <varbound>
     14 constraints of type <setppc>
    100 constraints of type <linear>
     42 constraints of type <nonlinear>
Presolving Time: 0.02

 time | node  | left  |LP iter|LP it/n|mem/heur|mdpt |vars |cons |rows |cuts |sepa|confs|strbr|  dualbound   | primalbound  |  gap   | compl. 
  0.1s|     1 |     0 |   283 |     - |  6260k |   0 | 510 | 534 | 828 |   0 |  0 |   0 |   0 | 0.000000e+00 |      --      |    Inf | unknown
o 0.1s|     1 |     0 |   398 |     - |feaspump|   0 | 510 | 534 | 828 |   0 |  0 |   0 |   0 | 0.000000e+00 | 6.352649e+00 |    Inf | unknown
  0.1s|     1 |     0 |   499 |     - |  6982k |   0 | 510 | 534 | 886 |  58 |  1 |   0 |   0 | 0.000000e+00 | 6.352649e+00 |    Inf | unknown
  0.1s|     1 |     0 |   499 |     - |  6993k |   0 | 510 | 534 | 872 |  58 |  1 |   0 |   0 | 0.000000e+00 | 6.352649e+00 |    Inf | unknown
  0.1s|     1 |     0 |   577 |     - |  7159k |   0 | 510 | 534 | 931 | 117 |  2 |   0 |   0 | 0.000000e+00 | 6.352649e+00 |    Inf | unknown
  0.1s|     1 |     0 |   660 |     - |  7407k |   0 | 510 | 534 | 988 | 174 |  3 |   0 |   0 | 0.000000e+00 | 6.352649e+00 |    Inf | unknown
  0.1s|     1 |     0 |   715 |     - |  7804k |   0 | 510 | 534 |1031 | 217 |  4 |   0 |   0 | 0.000000e+00 | 6.352649e+00 |    Inf | unknown
  0.1s|     1 |     0 |   804 |     - |  8016k |   0 | 510 | 534 |1073 | 259 |  5 |   0 |   0 | 0.000000e+00 | 6.352649e+00 |    Inf | unknown
  0.2s|     1 |     0 |   883 |     - |  8642k |   0 | 510 | 534 |1115 | 301 |  6 |   0 |   0 | 0.000000e+00 | 6.352649e+00 |    Inf | unknown
  0.2s|     1 |     0 |   937 |     - |  8798k |   0 | 510 | 534 |1147 | 333 |  7 |   0 |   0 | 0.000000e+00 | 6.352649e+00 |    Inf | unknown
  0.2s|     1 |     0 |   990 |     - |  8957k |   0 | 510 | 534 |1175 | 361 |  8 |   0 |   0 | 0.000000e+00 | 6.352649e+00 |    Inf | unknown
  0.2s|     1 |     0 |  1040 |     - |  9138k |   0 | 510 | 534 |1200 | 386 |  9 |   0 |   0 | 0.000000e+00 | 6.352649e+00 |    Inf | unknown
  0.3s|     1 |     0 |  1124 |     - |  9358k |   0 | 510 | 534 | 993 | 411 | 10 |   0 |   0 | 0.000000e+00 | 6.352649e+00 |    Inf | unknown
  0.3s|     1 |     0 |  1179 |     - |  9469k |   0 | 510 | 534 |1019 | 437 | 11 |   0 |   0 | 0.000000e+00 | 6.352649e+00 |    Inf | unknown
  0.3s|     1 |     0 |  1223 |     - |  9593k |   0 | 510 | 534 |1046 | 464 | 12 |   0 |   0 | 0.000000e+00 | 6.352649e+00 |    Inf | unknown
 time | node  | left  |LP iter|LP it/n|mem/heur|mdpt |vars |cons |rows |cuts |sepa|confs|strbr|  dualbound   | primalbound  |  gap   | compl. 
r 0.5s|     1 |     0 |  3490 |     - |intshift|   0 | 510 | 520 |1046 | 464 | 12 |   0 |   0 | 0.000000e+00 | 5.324202e+00 |    Inf | unknown
  1.0s|     1 |     0 |  3490 |     - |  9785k |   0 | 510 | 520 |1046 | 464 | 12 |   0 |   0 | 0.000000e+00 | 5.324202e+00 |    Inf | unknown
  1.0s|     1 |     0 |  3535 |     - |  9885k |   0 | 510 | 520 |1068 | 486 | 13 |   0 |   0 | 0.000000e+00 | 5.324202e+00 |    Inf | unknown
  1.0s|     1 |     0 |  3556 |     - |  9894k |   0 | 510 | 520 |1076 | 494 | 14 |   0 |   0 | 0.000000e+00 | 5.324202e+00 |    Inf | unknown
  1.1s|     1 |     2 |  3556 |     - |  9915k |   0 | 510 | 520 |1076 | 494 | 14 |   0 |  27 | 0.000000e+00 | 5.324202e+00 |    Inf | unknown
d 1.3s|    15 |    16 |  4843 | 260.1 |pscostdi|  14 | 510 | 520 |1071 |1399 |  5 |   0 | 100 | 0.000000e+00 | 5.270907e+00 |    Inf | unknown
d 1.5s|    28 |    24 |  7462 | 231.9 |fracdivi|  14 | 510 | 520 |1027 |2580 |  7 |   0 | 165 | 0.000000e+00 | 4.788266e+00 |    Inf | unknown
d 1.7s|    41 |    31 |  8843 | 191.0 |nlpdivin|  17 | 510 | 520 |1135 |   0 |  6 |   0 | 180 | 0.000000e+00 | 3.247865e+00 |    Inf | unknown
d 1.8s|    55 |    44 | 10361 | 169.6 |veclendi|  18 | 510 | 520 |1157 |3878 |  7 |   0 | 187 | 0.000000e+00 | 2.900820e+00 |    Inf |   2.61%
  2.3s|   100 |    89 | 18252 | 172.2 |    15M |  18 | 510 | 520 |1126 |6922 |  5 |   0 | 195 | 0.000000e+00 | 2.900820e+00 |    Inf |   4.27%
L 3.0s|   155 |   132 | 29793 | 185.7 |    gins|  19 | 510 | 520 |1035 |  10k|  2 |   4 | 195 | 0.000000e+00 | 2.308553e+00 |    Inf |   6.05%
  3.4s|   200 |   169 | 36205 | 175.9 |    17M |  21 | 510 | 520 |1203 |  13k|  6 |  13 | 195 | 5.428910e-02 | 2.308553e+00 |4152.33%|   9.21%
  4.1s|   300 |   217 | 47160 | 153.7 |    21M |  21 | 510 | 520 | 939 |  18k|  2 |  22 | 195 | 1.394434e-01 | 2.308553e+00 |1555.55%|  18.60%
  4.8s|   400 |   247 | 56671 | 139.0 |    22M |  22 | 510 | 520 |1146 |  22k|  8 |  30 | 196 | 2.616909e-01 | 2.308553e+00 | 782.17%|  28.85%
  5.4s|   500 |   297 | 67268 | 132.4 |    24M |  22 | 510 | 520 |1132 |  27k|  6 |  34 | 199 | 4.429304e-01 | 2.308553e+00 | 421.20%|  33.85%
 time | node  | left  |LP iter|LP it/n|mem/heur|mdpt |vars |cons |rows |cuts |sepa|confs|strbr|  dualbound   | primalbound  |  gap   | compl. 
d 5.7s|   552 |   325 | 72863 | 130.1 |veclendi|  23 | 510 | 520 |1250 |  29k|  4 |  46 | 202 | 6.157642e-01 | 2.239963e+00 | 263.77%|  35.02%
  5.9s|   600 |   341 | 75974 | 124.8 |    26M |  23 | 510 | 520 |1282 |  31k|  5 |  54 | 206 | 6.279682e-01 | 2.239963e+00 | 256.70%|  36.61%
  6.4s|   700 |   375 | 81752 | 115.2 |    27M |  24 | 510 | 520 |1050 |  35k|  2 |  58 | 206 | 6.373339e-01 | 2.239963e+00 | 251.46%|  38.97%
* 6.5s|   735 |   325 | 84003 | 112.8 |    LP  |  24 | 510 | 520 |1190 |  37k| 10 |  62 | 206 | 6.373339e-01 | 2.064919e+00 | 223.99%|  43.88%
* 6.6s|   747 |   244 | 84465 | 111.6 |    LP  |  25 | 510 | 520 |1275 |  37k|  6 |  63 | 206 | 6.373339e-01 | 1.911933e+00 | 199.99%|  45.70%
  6.8s|   800 |   239 | 87873 | 108.5 |    28M |  25 | 510 | 520 |1052 |  39k|  0 |  67 | 211 | 6.388349e-01 | 1.911933e+00 | 199.28%|  53.99%
  7.1s|   900 |   231 | 92292 | 101.3 |    29M |  25 | 510 | 520 |1068 |  41k|  1 |  74 | 215 | 8.154258e-01 | 1.911933e+00 | 134.47%|  57.12%
  7.7s|  1000 |   209 | 96616 |  95.5 |    29M |  25 | 510 | 520 |1176 |  43k|  0 |  79 | 216 | 9.440004e-01 | 1.911933e+00 | 102.54%|  62.29%
  7.9s|  1100 |   173 | 99983 |  89.9 |    29M |  25 | 510 | 520 |1260 |  45k|  5 |  85 | 217 | 1.081331e+00 | 1.911933e+00 |  76.81%|  67.91%
  8.2s|  1200 |   137 |104281 |  86.0 |    29M |  25 | 510 | 520 |1273 |  47k|  2 |  95 | 220 | 1.096471e+00 | 1.911933e+00 |  74.37%|  72.17%
  8.6s|  1300 |   107 |109411 |  83.3 |    30M |  25 | 510 | 520 |1081 |  49k|  0 | 104 | 227 | 1.268379e+00 | 1.911933e+00 |  50.74%|  77.22%
  8.9s|  1400 |    95 |114159 |  80.7 |    31M |  25 | 510 | 520 |1117 |  51k|  7 | 110 | 249 | 1.343343e+00 | 1.911933e+00 |  42.33%|  80.33%
  9.2s|  1500 |    65 |117972 |  77.9 |    32M |  25 | 510 | 520 |1086 |  52k|  0 | 115 | 252 | 1.343343e+00 | 1.911933e+00 |  42.33%|  86.43%
  9.7s|  1600 |    59 |124101 |  76.9 |    33M |  25 | 510 | 520 |1451 |  55k|  4 | 136 | 272 | 1.353400e+00 | 1.911933e+00 |  41.27%|  88.12%
 10.0s|  1700 |    13 |129457 |  75.5 |    35M |  25 | 510 | 511 |1116 |  57k|  2 | 151 | 284 | 1.701124e+00 | 1.911933e+00 |  12.39%|  93.92%

SCIP Status        : problem is solved [optimal solution found]
Solving Time (sec) : 10.10
Solving Nodes      : 1729
Primal Bound       : +1.91193317067654e+00 (15 solutions)
Dual Bound         : +1.91193317067654e+00
Gap                : 0.00 %


--- Reading solution for model GAMS_MODEL
***
*** Solver did not provide marginals for model GAMS_MODEL
***
--- Executing after solve: elapsed 0:00:10.179
--- model.gms(1792) 3 Mb
--- model.gms(2650) 5 Mb
--- Putfile results /local/scratch/a/sgusev/repos/k_means/data/gams_scip_gdp.hull_exact/no_mode/2026-02-15_23-20-33/original/results.dat
--- Putfile statresults /local/scratch/a/sgusev/repos/k_means/data/gams_scip_gdp.hull_exact/no_mode/2026-02-15_23-20-33/original/resultsstat.dat
*** Status: Normal completion
--- Job model.gms Stop 02/15/26 23:20:43 elapsed 0:00:10.181
Original problem solved. Time taken: 10.728806257247925 seconds
Original objective value: 1.91193317067654
